p cnf 10 24
10 -7 -4 0
10 7 1 0
10 4 1 0
-9 8 3 0
-9 -8 -2 0
9 -8 -2 0
9 7 -6 0
9 -7 -1 0
9 6 -3 0
-9 -5 2 0
-9 4 -1 0
9 3 -2 0
-8 7 -2 0
-8 6 -2 0
8 -4 -2 0
-7 -6 4 0
7 -5 -4 0
7 4 -3 0
-7 -4 1 0
-6 3 2 0
-6 -2 1 0
-5 4 1 0
-5 3 -2 0
-3 -2 1 0
